[1, 2, 3, 4, 5, 12, 14, 13, 15, 11, 11, 15, 13, 14, 13, 13, 15, 13, 19, 20, 18, 40, 36, 27, 36, 37, 31, 30, 29, 24, 32, 32, 33, 32, 35, 36, 37, 35, 39, 40, 41, 41, 43, 42, 44, 47, 46, 51, 52, 50, 48, 47, 53, 54, 56, 57, 55, 55, 56, 61, 60, 62, 66, 67, 64, 70, 72, 69, 65, 71, 71, 72, 76, 74, 75, 73, 83, 84, 88, 82, 83, 82, 83, 85, 84, 85, 79, 90, 93, 90, 91, 93, 93, 95, 94, 96, 98, 96, 93, 96, 95, 109, 95, 113, 109, 108, 107, 105, 109, 110, 110, 112, 113, 116, 115, 114, 106, 112, 107, 110, 118, 115, 129, 126, 127, 124, 123, 125, 128, 128, 129, 128, 127, 130, 135, 138, 138, 137, 142, 141, 141, 138, 139, 138, 141, 148, 149, 151, 148, 149, 150, 151, 156, 155, 154, 154, 155, 184, 161, 162, 163, 159, 160, 165, 163, 166, 166, 168, 169, 170, 171, 170, 169, 175, 175, 176, 177, 177, 179, 182, 180, 181, 182, 183, 186, 181, 180, 182, 186, 190, 191, 192, 194, 197, 198, 196, 197, 199, 195, 201, 201, 202, 202, 204, 206, 206, 207, 211, 210, 215, 212, 208, 216, 206, 213, 214, 217, 217, 219, 217, 211, 215, 209, 207, 205, 217, 237, 246, 229, 230, 231, 232, 233, 236, 232, 238, 241, 240, 241, 242, 240, 239, 245, 240, 246, 247, 248, 245, 249, 257, 259, 260, 258, 257, 256, 254, 255, 262, 263, 263, 261, 260, 264, 264, 261, 257, 258, 257, 252, 256, 251, 249, 273, 274, 276, 275, 277, 278, 279, 92]
[1, 2, 3, 4, 18, 19, 29, 43, 45, 49, 50, 51, 56, 61, 65, 66, 68, 84, 84, 87, 106, 106, 107, 108, 108, 108, 124, 125, 126, 126, 128, 128, 149, 150, 150, 158, 160, 161, 167, 181, 181, 181, 182, 204, 208, 209, 210, 210, 211, 212, 213, 214, 214, 215, 216, 216, 216, 216, 241, 248, 248, 255, 255, 256, 256, 256, 256, 257, 257, 278]
